p cnf 17 25
11 16 0
12 -14 0
-2 -11 0
1 -4 0
5 17 0
-5 -9 0
-2 10 0
6 -9 0
-7 -13 0
-1 4 0
-7 16 0
-6 -11 0
-11 14 0
4 11 0
2 -15 0
-2 -3 0
6 8 -13 0
4 -12 0
2 -13 0
-12 -17 0
-8 10 0
-2 5 0
6 -17 0
-13 -17 0
-3 -13 -16 0
